c This is a random SAT instance with 10 variables and 20 clauses
p cnf 10 20
-6 10 6 0
5 -8 -5 4 0
-2 -6 0
7 -3 2 5 0
-3 -1 6 10 0
-2 -1 -6 5 8 0
-3 7 3 6 0
-5 -9 -1 8 -8 -4 0
3 10 -5 0
3 8 1 7 9 -2 -7 4 -9 -10 0
-2 -8 -9 3 -3 -4 9 -7 0
-4 8 -5 2 10 3 -10 1 9 -7 0
3 4 0
-3 3 -6 6 -7 -5 5 0
-9 0
6 4 3 0
3 0
9 0
6 -10 0
-9 6 7 0